%------------------------ OCCUPANCY MATRICES (MINIZINC)

hyperperiod_length =  20;
num_links =  80;
num_packets =  2;

%  f1:0 f2:0 
occupancy = 
[|    -1,    18,  % 5-6
 |    -1,    18,  % 6-7
 |    18,    -1,  % 6-2
 |    -1,    18,  % 7-11
 |    18,    -1,  % 8-9
 |    18,    -1,  % 9-10
 |    18,    -1,  % 10-6
 |    -1,    18,  % 11-15
 |    18,    -1,  % 2-L
 |    -1,    18,  % L-5
 |    18,    -1,  % L-8
 |    -1,    18,  % 15-L
|];
%  f1:0 f2:0 
min_start = 
[|    -1,     0,  % 5-6
 |    -1,     0,  % 6-7
 |     0,    -1,  % 6-2
 |    -1,     0,  % 7-11
 |     0,    -1,  % 8-9
 |     0,    -1,  % 9-10
 |     0,    -1,  % 10-6
 |    -1,     0,  % 11-15
 |     0,    -1,  % 2-L
 |    -1,     0,  % L-5
 |     0,    -1,  % L-8
 |    -1,     0,  % 15-L
|];

%  f1:0 f2:0 
deadline = 
[|    -1,    20,  % 5-6
 |    -1,    20,  % 6-7
 |    20,    -1,  % 6-2
 |    -1,    20,  % 7-11
 |    20,    -1,  % 8-9
 |    20,    -1,  % 9-10
 |    20,    -1,  % 10-6
 |    -1,    20,  % 11-15
 |    20,    -1,  % 2-L
 |    -1,    20,  % L-5
 |    20,    -1,  % L-8
 |    -1,    20,  % 15-L
|];
